24
2 51 35 
2 28 7 
2 47 1 
3 12 59 48 
3 15 38 6 
3 45 25 27 
2 2 53 
2 16 52 
2 37 22 
3 13 20 21 
3 41 46 18 
3 26 5 10 
3 42 24 8 
3 60 14 34 
2 56 33 
3 58 3 40 
3 57 29 31 
3 44 4 32 
2 19 11 
3 43 36 9 
3 55 17 23 
2 54 39 
2 50 49 
1 30 
